CPLEX/AMMM/project.8.sol
OBJECTIVE: 0.13
f(1) = 12
f(2) = 2
f(3) = 5
f(4) = 4
